p cnf 30 74
1 2 0
3 4 0
5 6 0
7 8 0
9 10 0
11 -3 0
12 -4 0
13 -5 0
14 -6 0
1 -15 0
1 -16 0
1 -17 0
1 -18 0
1 -19 0
1 -20 0
1 -21 0
1 -22 0
2 -23 0
2 -24 0
2 -25 0
2 -26 0
2 -27 0
2 -28 0
2 -29 0
2 -30 0
3 -15 0
3 -17 0
3 -23 0
3 -25 0
3 -11 0
4 -16 0
4 -18 0
4 -24 0
4 -26 0
4 -12 0
5 -15 0
5 -16 0
5 -23 0
5 -24 0
5 -13 0
6 -17 0
6 -18 0
6 -25 0
6 -26 0
6 -14 0
7 -19 0
7 -27 0
8 -20 0
8 -28 0
9 -21 0
9 -29 0
10 -22 0
10 -30 0
-1 -2 0
-3 -4 0
-5 -6 0
-7 -8 0
-9 -10 0
19 -1 -7 0
27 -2 -7 0
20 -1 -8 0
28 -2 -8 0
21 -1 -9 0
29 -2 -9 0
22 -1 -10 0
30 -2 -10 0
15 -1 -3 -5 0
16 -1 -4 -5 0
17 -1 -3 -6 0
18 -1 -4 -6 0
23 -2 -3 -5 0
24 -2 -4 -5 0
25 -2 -3 -6 0
26 -2 -4 -6 0